opti conp comp defe
cell
1.59 1.59 1.59 90.0 90.0 90.0
frac
O core 0.0 0.0 0.0
O shel 0.0 0.0 0.0
Li core 0.25 0.25 0.25
space
225
include /home/ben/Documents/gulp/data_files/li3ocl_potentials.inp 
