opti conp comp defe
cell
2.56 2.56 2.56 90.0 90.0 90.0
frac
Cl core 0 0 0
Cl shel 0 0 0
Li core 0.5 0 0
space
225
include /home/ben/Documents/gulp/data_files/li3ocl_potentials.inp 
