opti conp comp defe
cell
2.76 2.76 2.76 90.0 90.0 90.0
frac
O core 0 0 0
O shel 0 0 0
Ba core 0.5 0 0
Ba shel 0.5 0 0
space
225
species
O core 0.183
O shel -2.183
Ba core -7.203
Ba shel 9.203
spring
O 593.7200
Ba 495.2
buckingham
O shel O shel 22764.30 0.1490 13.19 0 12
Ba shel O shel 905.7 0.3976 0.00 0 12
Ba shel Cl shel 2704.55 0.3528 0.00 0 12
dump Li3OCl.grs
