opti conp comp defe
cell
2.56 2.56 2.56 90.0 90.0 90.0
frac
Cl core 0 0 0
Cl shel 0 0 0
Li core 0.5 0 0
space
225
species
Li core 1.000
Cl core 1.485
Cl shel -2.485
spring
Cl 29.3800
buckingham
Li core Li core 360.53 0.1610 0 0 12
Li core Cl shel 421.04 0.3340 0 0 12
Cl shel Cl shel 1227.20 0.3210 14.53 0 12
dump Li3OCl.grs
